10
acetone
C         -1.14688        1.65  -0.087  -0.018   0.013
O         -2.33948        1.40  -1.279  -0.260   0.192
C         -0.43410        1.22   0.626  -0.446  -1.241
C         -0.32914        2.39   0.731   0.722   1.037
H         -1.13128        0.69  -0.071  -0.969  -1.901
H          0.38488        0.54   1.445  -1.122  -0.984
H         -0.04795        2.10   1.012   0.434  -1.762
H         -0.95635        2.64   0.104   0.976   1.896
H          0.06079        3.31   1.121   1.643   0.599
H          0.49362        1.75   1.554   0.087   1.376
