15
adenine_velocities_320.xyz
N           0.24647 -0.97084 -0.36999  0.03804  0.71742 -0.70138
C           1.57567 -0.72509 -0.41182  0.19274 -0.17441  0.17940
N           2.57509 -1.56731 -0.74834  0.27250 -0.40983  0.18536
C           2.08440 -2.77392 -1.06412 -0.29592 -0.20945  0.14470
C           0.76004 -3.17502 -1.07364  0.15067 -0.58330  0.68181
C          -0.19043 -2.20412 -0.71677  0.18534  0.29993  0.19103
N          -1.55725 -2.45194 -0.68088 -0.78690 -0.19799 -0.24641
H           1.87648  0.28195 -0.13641  1.18552  0.04357  0.63653
N           0.65688 -4.50448 -1.43599  0.27304  0.64757 -0.70629
C           1.89679 -4.88923 -1.65685 -0.11481  0.06171  0.52542
N           2.79244 -3.87555 -1.44649 -0.07276 -0.17258 -0.28561
H          -1.78250 -3.43736 -0.60226  2.09503  2.19457  0.14414
H          -2.04160 -1.80849 -0.06933 -0.48682 -1.53931  1.73066
H           2.20658 -5.87861 -1.96766 -0.28181  0.26246  1.04433
H           3.79505 -3.91779 -1.54833 -0.08184 -1.86934  0.29910
