12
benzene_velocities_298.15.xyz
C          -0.26857 -0.46167 -1.43123 -0.07299  0.73716 -0.79545
C           0.01308  0.05391 -0.16616  0.05427 -0.19560  0.11411
C          -0.24001 -0.71245  0.97146  0.17141 -0.43786  0.12887
C          -0.77474 -1.99439  0.84402 -0.41741 -0.22942  0.08061
C          -1.05638 -2.50997 -0.42104  0.01365 -0.59027  0.59906
C          -0.80330 -1.74361 -1.55867  0.04712  0.26226  0.12533
H          -1.02274 -2.14531 -2.54430 -2.30974 -0.17354 -1.12610
H          -0.07139  0.13541 -2.31756  1.01255  0.01481  0.55535
H           0.42969  1.05268 -0.06687  1.50411  2.86897 -2.78082
H          -0.02057 -0.31075  1.95710  0.07307  0.68726  1.52948
H          -0.97192 -2.59147  1.73036  0.25987 -0.08211 -1.26712
H          -1.47300 -3.50874 -0.52034  1.89046  2.09108  0.08007
